SDVRP instances/custom_instances/p02_6_split0.vrp
NAME:p02_6_split
BEST_KNOWN: 0
COMMENT: 0
DIMENSION: 345
CAPACITY: 140
EDGE_WEIGHT_FORMAT: FUNCTION
EDGE_WEIGHT_TYPE: EXACT_2D
NODE_COORD_SECTION
1 0.00000 0.00000
2 40 49
3 40 49
4 40 49
5 40 49
6 40 49
7 40 49
8 40 49
9 -35 15
10 -35 15
11 -35 15
12 -35 15
13 -19 42
14 -19 42
15 -19 42
16 -19 42
17 -19 42
18 32 -26
19 32 -26
20 32 -26
21 32 -26
22 32 -26
23 32 -26
24 32 -26
25 32 -26
26 32 -26
27 -27 6
28 -27 6
29 -27 6
30 -27 6
31 -27 6
32 -27 6
33 -33 8
34 -33 8
35 -33 8
36 -33 8
37 -33 8
38 44 39
39 44 39
40 44 39
41 50 -8
42 50 -8
43 50 -8
44 50 -8
45 50 -8
46 -49 43
47 -49 43
48 -49 43
49 -49 43
50 -49 43
51 -49 43
52 -49 43
53 -49 43
54 -10 12
55 7 -7
56 7 -7
57 7 -7
58 -35 -15
59 -35 -15
60 -35 -15
61 -35 -15
62 -35 -15
63 -35 -15
64 -28 -9
65 -28 -9
66 -28 -9
67 27 -17
68 27 -17
69 27 -17
70 0 -35
71 0 -35
72 0 -35
73 1 46
74 1 46
75 1 46
76 1 46
77 1 46
78 1 46
79 8 -45
80 8 -45
81 8 -45
82 8 -45
83 8 -45
84 -27 36
85 -27 36
86 -34 12
87 -34 12
88 -34 12
89 -34 12
90 -34 12
91 -34 12
92 -34 12
93 -47 9
94 -47 9
95 -47 9
96 -47 9
97 -47 9
98 -47 9
99 -3 -35
100 -3 -35
101 -3 -35
102 -37 42
103 -37 42
104 -37 42
105 -37 42
106 -37 42
107 21 -49
108 21 -49
109 21 -49
110 21 -49
111 21 -49
112 21 -49
113 21 -49
114 9 25
115 9 25
116 9 25
117 9 25
118 9 25
119 26 -21
120 26 -21
121 26 -21
122 26 -21
123 26 -21
124 13 14
125 13 14
126 13 14
127 13 14
128 13 14
129 13 14
130 13 14
131 11 32
132 11 32
133 11 32
134 11 32
135 11 32
136 11 32
137 11 32
138 11 32
139 29 22
140 29 22
141 29 22
142 29 22
143 -29 33
144 -29 33
145 32 27
146 32 27
147 34 -8
148 34 -8
149 34 -8
150 34 -8
151 34 -8
152 34 -8
153 34 -8
154 34 -8
155 41 -31
156 41 -31
157 41 -31
158 -48 17
159 -48 17
160 -48 17
161 -48 17
162 17 -45
163 17 -45
164 17 -45
165 -4 -38
166 -4 -38
167 -4 -38
168 15 -48
169 15 -48
170 15 -48
171 15 -48
172 15 -48
173 15 -48
174 15 -48
175 39 21
176 39 21
177 39 21
178 39 21
179 -16 8
180 -16 8
181 -46 8
182 -46 8
183 -46 8
184 -46 8
185 -46 8
186 -46 8
187 -46 8
188 -46 8
189 11 -49
190 11 -49
191 11 -49
192 11 -49
193 11 -49
194 -23 21
195 -23 21
196 -23 21
197 -23 21
198 -23 21
199 -23 21
200 -23 21
201 -23 21
202 11 5
203 11 5
204 11 5
205 -45 20
206 -45 20
207 19 -39
208 19 -39
209 19 -39
210 19 -39
211 19 -39
212 19 -39
213 19 -39
214 19 -39
215 44 25
216 44 25
217 44 25
218 17 -29
219 31 -50
220 31 -50
221 31 -50
222 31 -50
223 31 -50
224 -18 -46
225 -18 -46
226 -18 -46
227 -18 -46
228 -26 2
229 -26 2
230 -26 2
231 -26 2
232 -46 38
233 -46 38
234 -46 38
235 -46 38
236 -35 42
237 -35 42
238 -35 42
239 -35 42
240 25 34
241 25 34
242 25 34
243 25 34
244 25 34
245 -9 -19
246 -9 -19
247 -9 -19
248 -9 -19
249 -9 -19
250 42 29
251 42 29
252 42 29
253 42 29
254 42 29
255 42 29
256 42 29
257 -40 -28
258 -40 -28
259 41 44
260 41 44
261 41 44
262 41 44
263 41 44
264 15 45
265 15 45
266 15 45
267 15 45
268 46 -28
269 46 -28
270 46 -28
271 30 -3
272 30 -3
273 30 -3
274 -43 -13
275 -43 -13
276 -43 -13
277 -9 -32
278 -9 -32
279 -9 -32
280 -9 -32
281 -9 -32
282 -9 -32
283 -9 -32
284 -45 4
285 -45 4
286 -45 4
287 -6 32
288 -6 32
289 -6 32
290 -6 32
291 -6 32
292 -30 -49
293 -30 -49
294 -30 -49
295 -30 -49
296 -23 1
297 -23 1
298 -23 1
299 -23 1
300 -23 1
301 -23 1
302 37 16
303 37 16
304 37 16
305 18 -26
306 18 -26
307 18 -26
308 -23 -34
309 -23 -34
310 -23 -34
311 -9 -33
312 -9 -33
313 -9 -33
314 -9 -33
315 -9 -33
316 -9 -33
317 -23 -11
318 -23 -11
319 -23 -11
320 -23 -11
321 -23 -11
322 -23 -11
323 -23 -11
324 1 -27
325 1 -27
326 1 -27
327 1 -27
328 -47 6
329 -47 6
330 -47 6
331 -47 6
332 -47 6
333 -47 6
334 -47 6
335 13 -14
336 13 -14
337 39 5
338 39 5
339 39 5
340 39 5
341 -48 3
342 -48 3
343 -48 3
344 -48 3
345 -48 3
DEMAND_SECTION
1 0
2 28
3 14
4 7
5 1
6 1
7 1
8 1
9 14
10 7
11 1
12 1
13 28
14 14
15 7
16 1
17 1
18 28
19 14
20 7
21 1
22 1
23 1
24 1
25 1
26 1
27 14
28 1
29 1
30 1
31 1
32 1
33 14
34 1
35 1
36 1
37 1
38 28
39 7
40 1
41 28
42 14
43 7
44 1
45 1
46 28
47 14
48 7
49 1
50 1
51 1
52 1
53 1
54 28
55 28
56 28
57 1
58 28
59 28
60 1
61 1
62 1
63 1
64 28
65 28
66 7
67 28
68 7
69 1
70 28
71 1
72 1
73 28
74 14
75 7
76 1
77 1
78 1
79 28
80 14
81 1
82 1
83 1
84 14
85 7
86 28
87 14
88 7
89 1
90 1
91 1
92 1
93 28
94 28
95 1
96 1
97 1
98 1
99 28
100 7
101 1
102 28
103 28
104 1
105 1
106 1
107 14
108 1
109 1
110 1
111 1
112 1
113 1
114 28
115 14
116 7
117 1
118 1
119 28
120 1
121 1
122 1
123 1
124 28
125 7
126 1
127 1
128 1
129 1
130 1
131 28
132 14
133 7
134 1
135 1
136 1
137 1
138 1
139 28
140 28
141 1
142 1
143 28
144 7
145 28
146 28
147 28
148 28
149 7
150 1
151 1
152 1
153 1
154 1
155 28
156 28
157 14
158 28
159 1
160 1
161 1
162 14
163 7
164 1
165 28
166 28
167 14
168 28
169 7
170 1
171 1
172 1
173 1
174 1
175 28
176 14
177 1
178 1
179 28
180 14
181 28
182 28
183 7
184 1
185 1
186 1
187 1
188 1
189 14
190 7
191 1
192 1
193 1
194 28
195 14
196 1
197 1
198 1
199 1
200 1
201 1
202 28
203 14
204 7
205 28
206 28
207 28
208 28
209 1
210 1
211 1
212 1
213 1
214 1
215 28
216 1
217 1
218 28
219 28
220 28
221 1
222 1
223 1
224 14
225 1
226 1
227 1
228 28
229 28
230 7
231 1
232 14
233 7
234 1
235 1
236 28
237 7
238 1
239 1
240 28
241 28
242 1
243 1
244 1
245 28
246 14
247 7
248 1
249 1
250 28
251 28
252 1
253 1
254 1
255 1
256 1
257 28
258 28
259 28
260 1
261 1
262 1
263 1
264 28
265 28
266 1
267 1
268 28
269 7
270 1
271 28
272 14
273 1
274 28
275 28
276 1
277 14
278 7
279 1
280 1
281 1
282 1
283 1
284 28
285 7
286 1
287 28
288 14
289 7
290 1
291 1
292 14
293 7
294 1
295 1
296 28
297 28
298 1
299 1
300 1
301 1
302 28
303 1
304 1
305 28
306 1
307 1
308 28
309 14
310 1
311 28
312 28
313 1
314 1
315 1
316 1
317 28
318 28
319 7
320 1
321 1
322 1
323 1
324 28
325 14
326 1
327 1
328 14
329 7
330 1
331 1
332 1
333 1
334 1
335 28
336 28
337 28
338 1
339 1
340 1
341 28
342 7
343 1
344 1
345 1
DEPOT_SECTION
1
-1
EOF