SDVRP instances/custom_instances/p02_6_split0.sol
344 -9 10 11 8 205 204 159 158 160 157 85 89 91 -14 16 15 12 13 237 236 238 235 104 103 105 101 83 84 -29 28 30 27 35 34 92 95 96 97 94 93 180 186 182 185 181 184 183 187 -32 33 36 285 283 284 340 344 342 343 341 329 332 330 331 333 327 328 87 86 90 88 -38 37 39 258 260 261 262 259 2 3 5 7 4 6 1 127 129 125 124 126 128 -43 42 41 44 40 336 337 338 339 301 302 303 203 202 -53 288 287 286 193 200 199 198 194 195 196 197 179 -54 56 55 -65 274 275 273 61 57 59 58 62 60 318 320 319 321 322 -66 67 68 20 24 18 19 17 22 23 21 25 334 -70 69 71 164 166 165 99 98 100 -80 81 82 78 79 190 191 188 189 192 171 167 172 168 173 169 170 162 163 161 208 209 -116 113 115 114 117 135 130 136 242 241 243 239 240 -120 119 121 118 122 154 155 156 269 268 267 -123 144 145 139 138 -134 132 137 131 133 263 264 266 265 74 77 75 72 76 73 290 289 -141 140 249 251 254 252 250 255 253 216 214 215 175 177 174 176 -143 142 102 50 49 52 47 48 46 51 45 232 233 231 234 -153 148 152 150 149 151 146 147 271 270 272 201 -178 26 31 228 230 229 227 298 297 299 300 296 -213 207 212 211 210 206 110 107 106 112 108 111 109 220 222 221 219 218 -247 246 248 245 244 281 278 282 276 279 280 277 315 313 311 310 312 314 -257 256 291 292 294 293 224 225 223 226 307 309 308 -295 64 63 317 316 -326 325 324 323 217 304 305 306 335 0 





OBJ=
2389.366
BEST_KNOWN=
0.000